NAME : rd400.6361.tour
COMMENT : Length = 6361
COMMENT : Found by LKH [Keld Helsgaun] Sat May 25 06:41:25 2013
TYPE : TOUR
DIMENSION : 80
TOUR_SECTION
9
115
137
76
276
130
293
345
363
32
23
48
35
154
213
6
151
288
42
173
164
317
89
395
400
278
340
200
25
174
398
359
156
192
180
210
319
229
313
383
232
258
286
161
249
168
55
338
399
74
134
364
277
322
325
86
138
150
33
310
143
370
231
218
12
221
388
125
189
393
16
361
330
387
73
382
179
227
22
203
-1
EOF
